(set-info :smt-lib-version 2.6)
(set-logic ALIA)
(set-info :source |
Generated by the tool Ultimate Automizer [1,2] which implements
an automata theoretic approach [3] to software verification.

This SMT script belongs to a set of SMT scripts that was generated by
applying Ultimate Automizer to benchmarks [4] from the SV-COMP 2023 [5,6].
This script may not contain all SMT commands that Ultimate Automizer
issued. In order to meet the restrictions for SMT-COMP benchmarks 
we dropped the commands for getting values (resp. models), 
unsatisfiable cores, and interpolants.

2023-03-21, Matthias Heizmann (heizmann@informatik.uni-freiburg.de)

[1] https://ultimate.informatik.uni-freiburg.de/automizer/
[2] Matthias Heizmann, Max Barth, Daniel Dietsch, Leonard Fichtner,
     Jochen Hoenicke, Dominik Klumpp, Mehdi Naouar, Tanja Schindler,
     Frank Schüssele, Andreas Podelski: Ultimate Automizer and the
     CommuHash Normal Form (Competition Contribution). TACAS 2023
[3] Matthias Heizmann, Jochen Hoenicke, Andreas Podelski: Software Model
     Checking for People Who Love Automata. CAV 2013
[4] https://github.com/sosy-lab/sv-benchmarks
[5] Dirk Beyer: Competition on Software Verification and
     Witness Validation: SV-COMP 2023.  TACAS 2023
[6] https://sv-comp.sosy-lab.org/2023/
|)
(set-info :license "https://creativecommons.org/licenses/by/4.0/")
(set-info :category "industrial")
(set-info :status unknown)
(declare-fun |ULTIMATE.start_main_~t~0#1.base| () Int)
(declare-fun |ULTIMATE.start_main_~a~0#1.offset| () Int)
(declare-fun |#memory_int| () (Array Int (Array Int Int)))
(declare-fun |ULTIMATE.start_main_~a~0#1.base| () Int)
(declare-fun |ULTIMATE.start_main_~p~0#1.base| () Int)
(declare-fun |ULTIMATE.start_main_~p~0#1.offset| () Int)
(declare-fun |#valid| () (Array Int Int))
(assert (= (select |#valid| |ULTIMATE.start_main_~a~0#1.base|) 1))
(assert (= |ULTIMATE.start_main_~p~0#1.offset| 0))
(assert (= |ULTIMATE.start_main_~a~0#1.base| |ULTIMATE.start_main_~p~0#1.base|))
(assert (forall ((|v_ULTIMATE.start_main_~p~0#1.base_70| Int) (v_ArrVal_718 (Array Int Int)) (v_ArrVal_711 Int)) (let ((.cse0 (select (let ((.cse1 (store (store |#memory_int| |ULTIMATE.start_main_~p~0#1.base| (store (select |#memory_int| |ULTIMATE.start_main_~p~0#1.base|) (+ |ULTIMATE.start_main_~p~0#1.offset| 8) v_ArrVal_711)) |ULTIMATE.start_main_~t~0#1.base| v_ArrVal_718))) (store .cse1 |v_ULTIMATE.start_main_~p~0#1.base_70| (store (select .cse1 |v_ULTIMATE.start_main_~p~0#1.base_70|) 0 3))) |ULTIMATE.start_main_~a~0#1.base|))) (or (= (select .cse0 (+ |ULTIMATE.start_main_~a~0#1.offset| 4)) 0) (= (select .cse0 |ULTIMATE.start_main_~a~0#1.offset|) 3)))))
(assert (= (select (select |#memory_int| |ULTIMATE.start_main_~p~0#1.base|) 4) 0))
(assert (= |ULTIMATE.start_main_~a~0#1.offset| 0))
(assert (= |ULTIMATE.start_main_~a~0#1.base| |ULTIMATE.start_main_~t~0#1.base|))
(check-sat)
(exit)
